Welcome to the CBC MILP Solver 
Version: 2.10.7 
Build Date: Feb 14 2022 

command line - cbc inputs/new_no_tr/order/triang6_4_up_right_input.lp sec 1800 solve solu solutions/new_no_tr/triang6_4_up_right_input.lp (default strategy 1)
seconds was changed from 1e+100 to 1800
Continuous objective value is 276.37 - 0.08 seconds
Cgl0002I 81 variables fixed
Cgl0003I 0 fixed, 11 tightened bounds, 295 strengthened rows, 0 substitutions
Cgl0003I 0 fixed, 12 tightened bounds, 185 strengthened rows, 0 substitutions
Cgl0003I 0 fixed, 7 tightened bounds, 107 strengthened rows, 0 substitutions
Cgl0003I 0 fixed, 3 tightened bounds, 65 strengthened rows, 0 substitutions
Cgl0003I 0 fixed, 1 tightened bounds, 58 strengthened rows, 0 substitutions
Cgl0003I 2 fixed, 0 tightened bounds, 8 strengthened rows, 0 substitutions
Cgl0003I 0 fixed, 0 tightened bounds, 19 strengthened rows, 0 substitutions
Cgl0003I 0 fixed, 0 tightened bounds, 13 strengthened rows, 0 substitutions
Cgl0003I 0 fixed, 0 tightened bounds, 9 strengthened rows, 0 substitutions
Cgl0004I processed model has 1392 rows, 491 columns (491 integer (469 of which binary)) and 4639 elements
Cutoff increment increased from 1e-05 to 0.9999
Cbc0045I 1 integer variables out of 491 objects (491 integer) have cost of 1 - high priority
Cbc0045I branch on satisfied Y create fake objective Y random cost Y
Cbc0038I Initial state - 274 integers unsatisfied sum - 86.3418
Cbc0038I Pass   1: suminf.   47.75336 (257) obj. 438.424 iterations 590
Cbc0038I Pass   2: suminf.   41.84758 (241) obj. 453.649 iterations 212
Cbc0038I Pass   3: suminf.   41.23177 (253) obj. 456.471 iterations 75
Cbc0038I Pass   4: suminf.   39.82766 (257) obj. 458.415 iterations 70
Cbc0038I Pass   5: suminf.   40.23209 (260) obj. 458.512 iterations 23
Cbc0038I Pass   6: suminf.   32.49467 (262) obj. 489.502 iterations 158
Cbc0038I Pass   7: suminf.   27.99238 (260) obj. 515.777 iterations 99
Cbc0038I Pass   8: suminf.   26.46573 (276) obj. 520.283 iterations 138
Cbc0038I Pass   9: suminf.   26.27742 (274) obj. 520.223 iterations 47
Cbc0038I Pass  10: suminf.   27.32427 (254) obj. 522.979 iterations 172
Cbc0038I Pass  11: suminf.   27.05826 (259) obj. 526.672 iterations 68
Cbc0038I Pass  12: suminf.   30.16426 (256) obj. 525.601 iterations 136
Cbc0038I Pass  13: suminf.   27.50685 (260) obj. 526.965 iterations 107
Cbc0038I Pass  14: suminf.   27.17532 (257) obj. 531.539 iterations 70
Cbc0038I Pass  15: suminf.   31.46881 (247) obj. 559.126 iterations 152
Cbc0038I Pass  16: suminf.   28.37541 (248) obj. 540.586 iterations 109
Cbc0038I Pass  17: suminf.   27.56104 (251) obj. 532.219 iterations 69
Cbc0038I Pass  18: suminf.   29.37412 (249) obj. 547.006 iterations 87
Cbc0038I Pass  19: suminf.   55.55631 (258) obj. 520.062 iterations 456
Cbc0038I Pass  20: suminf.   35.44279 (240) obj. 534.989 iterations 335
Cbc0038I Pass  21: suminf.   30.85047 (245) obj. 540.94 iterations 113
Cbc0038I Pass  22: suminf.   28.45926 (248) obj. 540.248 iterations 65
Cbc0038I Pass  23: suminf.   32.58607 (222) obj. 625.381 iterations 273
Cbc0038I Pass  24: suminf.   29.89468 (231) obj. 643.15 iterations 97
Cbc0038I Pass  25: suminf.   30.75857 (223) obj. 643.446 iterations 107
Cbc0038I Pass  26: suminf.   29.63001 (230) obj. 643.285 iterations 40
Cbc0038I Pass  27: suminf.   32.42056 (210) obj. 632.409 iterations 157
Cbc0038I Pass  28: suminf.   30.18829 (227) obj. 633.755 iterations 60
Cbc0038I Pass  29: suminf.   30.99190 (194) obj. 591.838 iterations 160
Cbc0038I Pass  30: suminf.   29.56308 (197) obj. 580.272 iterations 79
Cbc0038I Pass  31: suminf.   28.63590 (190) obj. 535.203 iterations 46
Cbc0038I Pass  32: suminf.   28.63590 (190) obj. 535.203 iterations 8
Cbc0038I Pass  33: suminf.   21.66259 (156) obj. 542.005 iterations 258
Cbc0038I Pass  34: suminf.   21.48321 (154) obj. 542.227 iterations 58
Cbc0038I Pass  35: suminf.   17.49664 (142) obj. 544.602 iterations 168
Cbc0038I Pass  36: suminf.   17.39836 (134) obj. 542.216 iterations 93
Cbc0038I Pass  37: suminf.   14.71966 (121) obj. 535.998 iterations 182
Cbc0038I Pass  38: suminf.   14.15963 (137) obj. 535.983 iterations 62
Cbc0038I Pass  39: suminf.   13.12367 (129) obj. 535.868 iterations 49
Cbc0038I Pass  40: suminf.    9.27183 (80) obj. 536.095 iterations 162
Cbc0038I Pass  41: suminf.    3.11220 (39) obj. 451.599 iterations 125
Cbc0038I Pass  42: suminf.    3.11220 (39) obj. 451.599 iterations 6
Cbc0038I Pass  43: suminf.    0.60956 (21) obj. 422 iterations 432
Cbc0038I Pass  44: suminf.    0.60956 (21) obj. 422 iterations 19
Cbc0038I Pass  45: suminf.    3.10446 (33) obj. 422 iterations 242
Cbc0038I Pass  46: suminf.    2.04512 (32) obj. 422 iterations 41
Cbc0038I Pass  47: suminf.    3.16015 (43) obj. 434.842 iterations 594
Cbc0038I Pass  48: suminf.    2.45583 (39) obj. 434.573 iterations 49
Cbc0038I Pass  49: suminf.    0.00000 (0) obj. 422 iterations 64
Cbc0038I Solution found of 422
Cbc0038I Cleaned solution of 422
Cbc0038I Before mini branch and bound, 33 integers at bound fixed and 0 continuous
Cbc0038I Mini branch and bound did not improve solution (0.80 seconds)
Cbc0038I Round again with cutoff of 406.596
Cbc0038I Pass  50: suminf.   48.22814 (262) obj. 406 iterations 37
Cbc0038I Pass  51: suminf.   35.40365 (253) obj. 406.596 iterations 277
Cbc0038I Pass  52: suminf.   34.42160 (257) obj. 406.596 iterations 75
Cbc0038I Pass  53: suminf.   33.29269 (262) obj. 406.596 iterations 179
Cbc0038I Pass  54: suminf.   32.38635 (263) obj. 406.596 iterations 25
Cbc0038I Pass  55: suminf.   31.37132 (272) obj. 406.596 iterations 48
Cbc0038I Pass  56: suminf.   31.25278 (265) obj. 406.596 iterations 62
Cbc0038I Pass  57: suminf.   32.61379 (270) obj. 406.596 iterations 101
Cbc0038I Pass  58: suminf.   31.76853 (272) obj. 406.596 iterations 63
Cbc0038I Pass  59: suminf.   36.21602 (259) obj. 406.596 iterations 191
Cbc0038I Pass  60: suminf.   34.66205 (261) obj. 406.596 iterations 80
Cbc0038I Pass  61: suminf.   33.79131 (272) obj. 406.596 iterations 43
Cbc0038I Pass  62: suminf.   32.88801 (269) obj. 406.596 iterations 24
Cbc0038I Pass  63: suminf.   31.69973 (268) obj. 406.596 iterations 53
Cbc0038I Pass  64: suminf.   31.29813 (265) obj. 406.596 iterations 105
Cbc0038I Pass  65: suminf.   34.47898 (265) obj. 406.596 iterations 178
Cbc0038I Pass  66: suminf.   31.99995 (259) obj. 406.596 iterations 124
Cbc0038I Pass  67: suminf.   29.70150 (261) obj. 406.596 iterations 82
Cbc0038I Pass  68: suminf.   31.47463 (273) obj. 406.596 iterations 173
Cbc0038I Pass  69: suminf.   30.07070 (276) obj. 406.596 iterations 146
Cbc0038I Pass  70: suminf.   29.96172 (276) obj. 406.596 iterations 19
Cbc0038I Pass  71: suminf.   36.28494 (208) obj. 406.596 iterations 229
Cbc0038I Pass  72: suminf.   33.62713 (224) obj. 406.596 iterations 115
Cbc0038I Pass  73: suminf.   32.63749 (237) obj. 406.596 iterations 45
Cbc0038I Pass  74: suminf.   32.69443 (239) obj. 406.596 iterations 13
Cbc0038I Pass  75: suminf.   35.82667 (226) obj. 406.596 iterations 222
Cbc0038I Pass  76: suminf.   31.88922 (225) obj. 406.596 iterations 95
Cbc0038I Pass  77: suminf.   30.47430 (228) obj. 406.596 iterations 67
Cbc0038I Pass  78: suminf.   30.67485 (231) obj. 406.596 iterations 27
Cbc0038I Pass  79: suminf.   30.18054 (232) obj. 406.596 iterations 16
Cbc0038I Pass  80: suminf.   33.69232 (229) obj. 406.596 iterations 104
Cbc0038I Pass  81: suminf.   33.45705 (230) obj. 406.596 iterations 18
Cbc0038I Pass  82: suminf.   33.46335 (230) obj. 406.596 iterations 6
Cbc0038I Pass  83: suminf.   31.48073 (225) obj. 406.596 iterations 92
Cbc0038I Pass  84: suminf.   31.92858 (228) obj. 406.596 iterations 87
Cbc0038I Pass  85: suminf.   31.59466 (231) obj. 406.596 iterations 43
Cbc0038I Pass  86: suminf.   30.27608 (218) obj. 406.596 iterations 150
Cbc0038I Pass  87: suminf.   28.28642 (220) obj. 406.596 iterations 69
Cbc0038I Pass  88: suminf.   28.25454 (221) obj. 406.596 iterations 1
Cbc0038I Pass  89: suminf.   28.38465 (191) obj. 406.596 iterations 126
Cbc0038I Pass  90: suminf.   27.74215 (192) obj. 406.596 iterations 23
Cbc0038I Pass  91: suminf.   24.22945 (156) obj. 406.596 iterations 108
Cbc0038I Pass  92: suminf.   18.29562 (163) obj. 406.596 iterations 158
Cbc0038I Pass  93: suminf.   17.88221 (107) obj. 406.596 iterations 83
Cbc0038I Pass  94: suminf.    8.12446 (73) obj. 406.596 iterations 176
Cbc0038I Pass  95: suminf.    5.94373 (60) obj. 406.596 iterations 66
Cbc0038I Pass  96: suminf.    6.05274 (45) obj. 406.596 iterations 75
Cbc0038I Pass  97: suminf.    5.43703 (41) obj. 406.596 iterations 12
Cbc0038I Pass  98: suminf.    4.06457 (33) obj. 406.596 iterations 29
Cbc0038I Pass  99: suminf.    4.90129 (35) obj. 406.596 iterations 56
Cbc0038I Pass 100: suminf.    4.90129 (35) obj. 406.596 iterations 8
Cbc0038I Pass 101: suminf.    2.86103 (36) obj. 406.596 iterations 104
Cbc0038I Pass 102: suminf.    2.21125 (36) obj. 406.596 iterations 30
Cbc0038I Pass 103: suminf.    7.31917 (45) obj. 406.596 iterations 123
Cbc0038I Pass 104: suminf.    5.08749 (40) obj. 406.596 iterations 53
Cbc0038I Pass 105: suminf.    3.94331 (24) obj. 406.596 iterations 89
Cbc0038I Pass 106: suminf.    3.26205 (23) obj. 406.596 iterations 24
Cbc0038I Pass 107: suminf.    5.69257 (33) obj. 406.596 iterations 145
Cbc0038I Pass 108: suminf.    5.21426 (43) obj. 406.596 iterations 33
Cbc0038I Pass 109: suminf.    7.22476 (50) obj. 406.596 iterations 128
Cbc0038I Pass 110: suminf.    3.75983 (41) obj. 406.596 iterations 40
Cbc0038I Pass 111: suminf.    4.03992 (26) obj. 406.596 iterations 104
Cbc0038I Pass 112: suminf.    4.03992 (26) obj. 406.596 iterations 3
Cbc0038I Pass 113: suminf.    4.34427 (25) obj. 406.596 iterations 140
Cbc0038I Pass 114: suminf.    6.23300 (44) obj. 406.596 iterations 162
Cbc0038I Pass 115: suminf.    7.27501 (44) obj. 406.596 iterations 166
Cbc0038I Pass 116: suminf.    4.18359 (42) obj. 406.596 iterations 36
Cbc0038I Pass 117: suminf.    6.60537 (49) obj. 406.596 iterations 167
Cbc0038I Pass 118: suminf.    2.95509 (39) obj. 406.596 iterations 73
Cbc0038I Pass 119: suminf.    5.04340 (45) obj. 406.596 iterations 117
Cbc0038I Pass 120: suminf.    4.09535 (43) obj. 406.596 iterations 22
Cbc0038I Pass 121: suminf.    2.80171 (38) obj. 406.596 iterations 40
Cbc0038I Pass 122: suminf.    3.94557 (40) obj. 406.596 iterations 62
Cbc0038I Pass 123: suminf.    3.94374 (42) obj. 406.596 iterations 12
Cbc0038I Pass 124: suminf.    7.31627 (61) obj. 406.596 iterations 258
Cbc0038I Pass 125: suminf.    7.05909 (58) obj. 406.596 iterations 8
Cbc0038I Pass 126: suminf.    8.39824 (50) obj. 406.596 iterations 135
Cbc0038I Pass 127: suminf.    7.46546 (44) obj. 406.596 iterations 30
Cbc0038I Pass 128: suminf.    6.38492 (52) obj. 406.596 iterations 43
Cbc0038I Pass 129: suminf.    5.71280 (54) obj. 406.596 iterations 156
Cbc0038I Pass 130: suminf.    4.82131 (50) obj. 406.596 iterations 44
Cbc0038I Pass 131: suminf.    7.45934 (50) obj. 406.596 iterations 123
Cbc0038I Pass 132: suminf.    6.00855 (39) obj. 406.596 iterations 62
Cbc0038I Pass 133: suminf.    3.80089 (45) obj. 406.596 iterations 169
Cbc0038I Pass 134: suminf.    3.80089 (45) obj. 406.596 iterations 10
Cbc0038I Pass 135: suminf.    5.35153 (52) obj. 406.596 iterations 110
Cbc0038I Pass 136: suminf.    5.35185 (55) obj. 406.596 iterations 24
Cbc0038I Pass 137: suminf.   10.19895 (47) obj. 406.596 iterations 160
Cbc0038I Pass 138: suminf.    9.55570 (49) obj. 406.596 iterations 28
Cbc0038I Pass 139: suminf.    9.42700 (51) obj. 406.596 iterations 38
Cbc0038I Pass 140: suminf.    8.81549 (62) obj. 406.596 iterations 177
Cbc0038I Pass 141: suminf.    7.08100 (52) obj. 406.596 iterations 69
Cbc0038I Pass 142: suminf.    7.08100 (52) obj. 406.596 iterations 25
Cbc0038I Pass 143: suminf.    7.96014 (36) obj. 406.596 iterations 156
Cbc0038I Pass 144: suminf.    5.52752 (35) obj. 406.596 iterations 51
Cbc0038I Pass 145: suminf.    6.45331 (22) obj. 406.596 iterations 126
Cbc0038I Pass 146: suminf.    6.31530 (25) obj. 406.596 iterations 33
Cbc0038I Pass 147: suminf.   10.27561 (41) obj. 406.596 iterations 129
Cbc0038I Pass 148: suminf.    7.76898 (47) obj. 406.596 iterations 284
Cbc0038I Pass 149: suminf.   40.28350 (207) obj. 406.596 iterations 420
Cbc0038I No solution found this major pass
Cbc0038I Before mini branch and bound, 43 integers at bound fixed and 0 continuous
Cbc0038I Mini branch and bound did not improve solution (1.52 seconds)
Cbc0038I After 1.52 seconds - Feasibility pump exiting with objective of 422 - took 1.28 seconds
Cbc0012I Integer solution of 422 found by feasibility pump after 0 iterations and 0 nodes (1.52 seconds)
Cbc0031I 45 added rows had average density of 131.71111
Cbc0013I At root node, 45 cuts changed objective from 276.96357 to 290.9997 in 26 passes
Cbc0014I Cut generator 0 (Probing) - 54 row cuts average 31.9 elements, 5 column cuts (5 active)  in 0.086 seconds - new frequency is 1
Cbc0014I Cut generator 1 (Gomory) - 90 row cuts average 293.8 elements, 0 column cuts (0 active)  in 0.345 seconds - new frequency is 1
Cbc0014I Cut generator 2 (Knapsack) - 0 row cuts average 0.0 elements, 0 column cuts (0 active)  in 0.019 seconds - new frequency is -100
Cbc0014I Cut generator 3 (Clique) - 0 row cuts average 0.0 elements, 0 column cuts (0 active)  in 0.013 seconds - new frequency is -100
Cbc0014I Cut generator 4 (MixedIntegerRounding2) - 0 row cuts average 0.0 elements, 0 column cuts (0 active)  in 0.020 seconds - new frequency is -100
Cbc0014I Cut generator 5 (FlowCover) - 0 row cuts average 0.0 elements, 0 column cuts (0 active)  in 0.015 seconds - new frequency is -100
Cbc0014I Cut generator 6 (TwoMirCuts) - 254 row cuts average 236.9 elements, 0 column cuts (0 active)  in 0.451 seconds - new frequency is 1
Cbc0014I Cut generator 7 (ZeroHalf) - 10 row cuts average 9.9 elements, 0 column cuts (0 active)  in 0.184 seconds - new frequency is -100
Cbc0010I After 0 nodes, 1 on tree, 422 best solution, best possible 291 (4.29 seconds)
Cbc0038I Full problem 1392 rows 491 columns, reduced to 209 rows 63 columns
Cbc0038I Full problem 1392 rows 491 columns, reduced to 299 rows 92 columns
Cbc0038I Full problem 1392 rows 491 columns, reduced to 258 rows 81 columns
Cbc0038I Full problem 1392 rows 491 columns, reduced to 239 rows 78 columns
Cbc0010I After 1000 nodes, 4 on tree, 422 best solution, best possible 360 (42.03 seconds)
Cbc0038I Full problem 1392 rows 491 columns, reduced to 222 rows 75 columns
Cbc0038I Full problem 1392 rows 491 columns, reduced to 251 rows 80 columns
Cbc0010I After 2000 nodes, 3 on tree, 422 best solution, best possible 370 (65.30 seconds)
Cbc0010I After 3000 nodes, 16 on tree, 422 best solution, best possible 377 (84.76 seconds)
Cbc0010I After 4000 nodes, 2 on tree, 422 best solution, best possible 380 (104.11 seconds)
Cbc0038I Full problem 1392 rows 491 columns, reduced to 143 rows 50 columns
Cbc0010I After 5000 nodes, 5 on tree, 422 best solution, best possible 384 (121.08 seconds)
Cbc0038I Full problem 1392 rows 491 columns, reduced to 231 rows 80 columns
Cbc0010I After 6000 nodes, 8 on tree, 422 best solution, best possible 385 (137.68 seconds)
Cbc0038I Full problem 1392 rows 491 columns, reduced to 158 rows 54 columns
Cbc0010I After 7000 nodes, 4 on tree, 422 best solution, best possible 387 (152.65 seconds)
Cbc0004I Integer solution of 389 found after 1140661 iterations and 7671 nodes (161.76 seconds)
Cbc0001I Search completed - best objective 389, took 1140661 iterations and 7671 nodes (161.76 seconds)
Cbc0032I Strong branching done 19442 times (723168 iterations), fathomed 738 nodes and fixed 2554 variables
Cbc0035I Maximum depth 107, 0 variables fixed on reduced cost
Cuts at root node changed objective from 276.964 to 291
Probing was tried 1407 times and created 51543 cuts of which 0 were active after adding rounds of cuts (1.577 seconds)
Gomory was tried 802 times and created 469 cuts of which 0 were active after adding rounds of cuts (0.958 seconds)
Knapsack was tried 26 times and created 0 cuts of which 0 were active after adding rounds of cuts (0.019 seconds)
Clique was tried 26 times and created 0 cuts of which 0 were active after adding rounds of cuts (0.013 seconds)
MixedIntegerRounding2 was tried 26 times and created 0 cuts of which 0 were active after adding rounds of cuts (0.020 seconds)
FlowCover was tried 26 times and created 0 cuts of which 0 were active after adding rounds of cuts (0.015 seconds)
TwoMirCuts was tried 802 times and created 7634 cuts of which 0 were active after adding rounds of cuts (0.989 seconds)
ZeroHalf was tried 26 times and created 10 cuts of which 0 were active after adding rounds of cuts (0.184 seconds)
ImplicationCuts was tried 34 times and created 105 cuts of which 0 were active after adding rounds of cuts (0.002 seconds)

Result - Optimal solution found

Objective value:                389.00000000
Enumerated nodes:               7671
Total iterations:               1140661
Time (CPU seconds):             161.79
Time (Wallclock seconds):       162.08

Total time (CPU seconds):       161.80   (Wallclock seconds):       162.09

